data;

param n:=27;
param p:=3;
param r:=[1] 0 [2] 3 [3] 4 [4] 8 [5] 12 [6] 10 [7] 5 [8] 18 [9] 7 [10] 7 [11] 26 [12] 30 [13] 21 [14] 29 [15] 17 [16] 33 [17] 26 [18] 1 [19] 25 [20] 9 [21] 17 [22] 59 [23] 10 [24] 64 [25] 28 [26] 64 [27] 5 ;
param w:=[1] 88 [2] 59 [3] 86 [4] 76 [5] 2 [6] 30 [7] 88 [8] 78 [9] 51 [10] 79 [11] 21 [12] 63 [13] 90 [14] 39 [15] 26 [16] 8 [17] 64 [18] 7 [19] 81 [20] 87 [21] 72 [22] 88 [23] 14 [24] 69 [25] 77 [26] 97 [27] 69 ;

end;
